
Gurobi 6.5.2 (linux64) logging started Mon Aug 29 10:57:51 2016

Optimize a model with 41 rows, 115 columns and 239 nonzeros
Coefficient statistics:
  Matrix range    [1e+00, 2e+00]
  Objective range [5e+00, 1e+02]
  Bounds range    [1e+00, 1e+00]
  RHS range       [1e+00, 1e+00]
Found heuristic solution: objective 997
Presolve removed 20 rows and 16 columns
Presolve time: 0.00s
Presolved: 21 rows, 99 columns, 197 nonzeros
Variable types: 0 continuous, 99 integer (99 binary)

Root relaxation: objective 4.975000e+02, 27 iterations, 0.00 seconds

    Nodes    |    Current Node    |     Objective Bounds      |     Work
 Expl Unexpl |  Obj  Depth IntInf | Incumbent    BestBd   Gap | It/Node Time

     0     0  497.50000    0    8  997.00000  497.50000  50.1%     -    0s
H    0     0                     516.0000000  497.50000  3.59%     -    0s
H    0     0                     512.0000000  497.50000  2.83%     -    0s
H    0     0                     505.0000000  497.50000  1.49%     -    0s

Cutting planes:
  Gomory: 1

Explored 0 nodes (27 simplex iterations) in 0.00 seconds
Thread count was 8 (of 8 available processors)

Optimal solution found (tolerance 1.00e-04)
Best objective 5.050000000000e+02, best bound 5.050000000000e+02, gap 0.0%
